c Created with the Wolfram Language : www.wolfram.com
c 
p edge 90 799
e 3 4
e 3 5
e 5 6
e 4 7
e 6 7
e 2 8
e 3 8
e 5 8
e 7 9
e 2 10
e 6 10
e 3 11
e 5 12
e 8 12
e 1 13
e 3 13
e 4 13
e 6 13
e 8 13
e 9 13
e 12 13
e 4 14
e 6 14
e 11 14
e 11 16
e 14 16
e 1 17
e 5 17
e 15 17
e 4 18
e 6 18
e 12 18
e 14 18
e 4 19
e 11 19
e 14 19
e 17 19
e 10 20
e 16 20
e 17 20
e 13 21
e 19 21
e 3 22
e 11 22
e 12 22
e 18 22
e 21 22
e 10 23
e 11 23
e 15 23
e 16 23
e 17 23
e 22 23
e 2 24
e 15 24
e 23 24
e 10 25
e 16 25
e 3 26
e 4 26
e 10 26
e 13 26
e 17 26
e 18 26
e 19 26
e 1 27
e 3 27
e 5 27
e 6 27
e 12 27
e 3 28
e 13 28
e 18 28
e 19 28
e 25 28
e 27 28
e 2 29
e 8 29
e 12 29
e 16 29
e 18 29
e 19 29
e 20 29
e 24 29
e 27 29
e 9 30
e 10 30
e 2 31
e 3 31
e 9 31
e 17 31
e 18 31
e 28 31
e 3 32
e 8 32
e 15 32
e 29 32
e 10 33
e 21 33
e 23 33
e 32 33
e 4 34
e 7 34
e 8 34
e 21 34
e 22 34
e 30 34
e 32 34
e 33 34
e 6 35
e 11 35
e 12 35
e 15 35
e 18 35
e 20 35
e 23 35
e 33 35
e 4 36
e 5 36
e 13 36
e 15 36
e 24 36
e 4 37
e 7 37
e 11 37
e 21 37
e 22 37
e 28 37
e 30 37
e 34 37
e 35 37
e 4 38
e 13 38
e 15 38
e 18 38
e 21 38
e 31 38
e 13 39
e 16 39
e 17 39
e 18 39
e 20 39
e 1 40
e 3 40
e 9 40
e 12 40
e 19 40
e 22 40
e 27 40
e 29 40
e 34 40
e 36 40
e 6 41
e 12 41
e 17 41
e 19 41
e 24 41
e 26 41
e 30 41
e 31 41
e 32 41
e 33 41
e 38 41
e 40 41
e 3 42
e 5 42
e 6 42
e 11 42
e 17 42
e 19 42
e 21 42
e 29 42
e 34 42
e 39 42
e 3 43
e 8 43
e 24 43
e 26 43
e 30 43
e 4 44
e 5 44
e 7 44
e 19 44
e 22 44
e 28 44
e 30 44
e 33 44
e 42 44
e 43 44
e 12 45
e 13 45
e 15 45
e 16 45
e 19 45
e 34 45
e 36 45
e 38 45
e 5 46
e 8 46
e 9 46
e 18 46
e 31 46
e 34 46
e 35 46
e 39 46
e 41 46
e 44 46
e 2 47
e 3 47
e 4 47
e 6 47
e 8 47
e 10 47
e 16 47
e 17 47
e 19 47
e 21 47
e 22 47
e 29 47
e 32 47
e 45 47
e 11 48
e 16 48
e 19 48
e 20 48
e 22 48
e 23 48
e 30 48
e 34 48
e 35 48
e 37 48
e 46 48
e 2 49
e 7 49
e 8 49
e 9 49
e 13 49
e 16 49
e 30 49
e 32 49
e 33 49
e 34 49
e 45 49
e 3 50
e 6 50
e 16 50
e 20 50
e 21 50
e 27 50
e 34 50
e 40 50
e 42 50
e 1 51
e 2 51
e 18 51
e 20 51
e 22 51
e 30 51
e 31 51
e 6 52
e 7 52
e 17 52
e 41 52
e 1 53
e 2 53
e 6 53
e 7 53
e 10 53
e 15 53
e 22 53
e 25 53
e 26 53
e 27 53
e 36 53
e 42 53
e 43 53
e 47 53
e 52 53
e 3 54
e 7 54
e 14 54
e 16 54
e 18 54
e 51 54
e 52 54
e 4 55
e 5 55
e 9 55
e 11 55
e 23 55
e 30 55
e 32 55
e 51 55
e 7 56
e 8 56
e 20 56
e 23 56
e 24 56
e 25 56
e 31 56
e 32 56
e 34 56
e 35 56
e 36 56
e 39 56
e 41 56
e 51 56
e 54 56
e 5 57
e 7 57
e 16 57
e 31 57
e 40 57
e 45 57
e 55 57
e 56 57
e 11 58
e 27 58
e 32 58
e 35 58
e 36 58
e 41 58
e 44 58
e 45 58
e 48 58
e 51 58
e 1 59
e 3 59
e 4 59
e 7 59
e 9 59
e 12 59
e 13 59
e 14 59
e 15 59
e 20 59
e 29 59
e 32 59
e 53 59
e 56 59
e 4 60
e 13 60
e 17 60
e 18 60
e 19 60
e 21 60
e 26 60
e 39 60
e 44 60
e 46 60
e 59 60
e 11 61
e 18 61
e 21 61
e 22 61
e 26 61
e 29 61
e 42 61
e 50 61
e 59 61
e 11 62
e 28 62
e 32 62
e 36 62
e 40 62
e 61 62
e 4 63
e 5 63
e 9 63
e 13 63
e 20 63
e 24 63
e 25 63
e 26 63
e 27 63
e 28 63
e 32 63
e 33 63
e 36 63
e 37 63
e 38 63
e 40 63
e 44 63
e 45 63
e 49 63
e 57 63
e 61 63
e 62 63
e 3 64
e 11 64
e 13 64
e 30 64
e 37 64
e 40 64
e 41 64
e 55 64
e 57 64
e 59 64
e 62 64
e 1 65
e 5 65
e 18 65
e 22 65
e 26 65
e 33 65
e 40 65
e 47 65
e 48 65
e 50 65
e 51 65
e 54 65
e 55 65
e 58 65
e 64 65
e 3 66
e 16 66
e 18 66
e 22 66
e 35 66
e 36 66
e 37 66
e 42 66
e 45 66
e 47 66
e 54 66
e 59 66
e 65 66
e 3 67
e 6 67
e 8 67
e 10 67
e 12 67
e 17 67
e 19 67
e 28 67
e 40 67
e 45 67
e 46 67
e 58 67
e 60 67
e 4 68
e 6 68
e 13 68
e 17 68
e 21 68
e 23 68
e 37 68
e 44 68
e 55 68
e 1 69
e 9 69
e 10 69
e 20 69
e 21 69
e 22 69
e 32 69
e 35 69
e 38 69
e 39 69
e 42 69
e 1 70
e 7 70
e 8 70
e 9 70
e 10 70
e 11 70
e 24 70
e 28 70
e 39 70
e 43 70
e 48 70
e 55 70
e 57 70
e 58 70
e 61 70
e 69 70
e 17 71
e 21 71
e 27 71
e 43 71
e 46 71
e 48 71
e 50 71
e 52 71
e 54 71
e 66 71
e 67 71
e 69 71
e 11 72
e 20 72
e 21 72
e 28 72
e 36 72
e 65 72
e 68 72
e 70 72
e 3 73
e 12 73
e 13 73
e 21 73
e 27 73
e 32 73
e 35 73
e 42 73
e 45 73
e 48 73
e 55 73
e 64 73
e 66 73
e 1 74
e 11 74
e 18 74
e 29 74
e 30 74
e 35 74
e 36 74
e 39 74
e 40 74
e 41 74
e 49 74
e 52 74
e 56 74
e 64 74
e 8 75
e 9 75
e 18 75
e 19 75
e 25 75
e 27 75
e 28 75
e 30 75
e 37 75
e 41 75
e 53 75
e 58 75
e 68 75
e 71 75
e 74 75
e 1 76
e 7 76
e 19 76
e 23 76
e 26 76
e 27 76
e 28 76
e 39 76
e 46 76
e 47 76
e 58 76
e 62 76
e 64 76
e 67 76
e 68 76
e 69 76
e 70 76
e 72 76
e 6 77
e 8 77
e 19 77
e 20 77
e 32 77
e 35 77
e 36 77
e 38 77
e 42 77
e 47 77
e 51 77
e 52 77
e 53 77
e 59 77
e 65 77
e 71 77
e 8 78
e 11 78
e 17 78
e 24 78
e 34 78
e 36 78
e 38 78
e 48 78
e 50 78
e 54 78
e 56 78
e 65 78
e 71 78
e 75 78
e 2 79
e 3 79
e 20 79
e 21 79
e 23 79
e 27 79
e 30 79
e 31 79
e 32 79
e 35 79
e 46 79
e 47 79
e 50 79
e 57 79
e 60 79
e 69 79
e 72 79
e 1 80
e 4 80
e 6 80
e 7 80
e 10 80
e 20 80
e 22 80
e 32 80
e 37 80
e 40 80
e 50 80
e 57 80
e 63 80
e 68 80
e 71 80
e 72 80
e 74 80
e 3 81
e 14 81
e 17 81
e 21 81
e 26 81
e 29 81
e 37 81
e 47 81
e 56 81
e 59 81
e 60 81
e 61 81
e 62 81
e 75 81
e 79 81
e 80 81
e 2 82
e 9 82
e 14 82
e 16 82
e 17 82
e 19 82
e 23 82
e 24 82
e 29 82
e 32 82
e 35 82
e 37 82
e 46 82
e 48 82
e 51 82
e 52 82
e 55 82
e 62 82
e 65 82
e 66 82
e 68 82
e 72 82
e 75 82
e 1 83
e 12 83
e 24 83
e 27 83
e 28 83
e 29 83
e 36 83
e 37 83
e 39 83
e 50 83
e 56 83
e 59 83
e 60 83
e 9 84
e 31 84
e 34 84
e 35 84
e 48 84
e 55 84
e 56 84
e 62 84
e 66 84
e 70 84
e 72 84
e 73 84
e 80 84
e 82 84
e 3 85
e 14 85
e 16 85
e 19 85
e 21 85
e 22 85
e 26 85
e 33 85
e 37 85
e 48 85
e 52 85
e 56 85
e 59 85
e 62 85
e 65 85
e 73 85
e 74 85
e 82 85
e 83 85
e 8 86
e 10 86
e 11 86
e 12 86
e 15 86
e 20 86
e 25 86
e 26 86
e 28 86
e 29 86
e 30 86
e 33 86
e 39 86
e 40 86
e 48 86
e 53 86
e 54 86
e 61 86
e 65 86
e 82 86
e 6 87
e 11 87
e 12 87
e 16 87
e 18 87
e 19 87
e 20 87
e 29 87
e 30 87
e 34 87
e 39 87
e 40 87
e 43 87
e 51 87
e 60 87
e 71 87
e 76 87
e 78 87
e 79 87
e 80 87
e 9 88
e 10 88
e 21 88
e 23 88
e 25 88
e 27 88
e 30 88
e 33 88
e 38 88
e 39 88
e 44 88
e 48 88
e 56 88
e 57 88
e 59 88
e 67 88
e 83 88
e 84 88
e 4 89
e 6 89
e 7 89
e 9 89
e 11 89
e 16 89
e 17 89
e 18 89
e 22 89
e 25 89
e 34 89
e 43 89
e 59 89
e 61 89
e 64 89
e 70 89
e 76 89
e 78 89
e 87 89
e 5 90
e 11 90
e 17 90
e 21 90
e 24 90
e 26 90
e 27 90
e 29 90
e 35 90
e 38 90
e 55 90
e 57 90
e 58 90
e 72 90
e 75 90
e 80 90
e 85 90
